(set-info :smt-lib-version 2.6)
(set-logic QF_UFLRA)
(set-info :source |
MathSat group

|)
(set-info :category "random")
(set-info :status sat)
(declare-fun x0 () Real)
(declare-fun x1 () Real)
(declare-fun x2 () Real)
(declare-fun x3 () Real)
(declare-fun x4 () Real)
(declare-fun x5 () Real)
(declare-fun x6 () Real)
(declare-fun x7 () Real)
(declare-fun x8 () Real)
(declare-fun x9 () Real)
(declare-fun x10 () Real)
(declare-fun x11 () Real)
(declare-fun x12 () Real)
(declare-fun x13 () Real)
(declare-fun x14 () Real)
(declare-fun x15 () Real)
(declare-fun x16 () Real)
(declare-fun x17 () Real)
(declare-fun x18 () Real)
(declare-fun x19 () Real)
(declare-fun x20 () Real)
(declare-fun x21 () Real)
(declare-fun x22 () Real)
(declare-fun x23 () Real)
(declare-fun x24 () Real)
(declare-fun x25 () Real)
(declare-fun x26 () Real)
(declare-fun x27 () Real)
(declare-fun x28 () Real)
(declare-fun x29 () Real)
(declare-fun x30 () Real)
(declare-fun x31 () Real)
(declare-fun x32 () Real)
(declare-fun x33 () Real)
(declare-fun x34 () Real)
(declare-fun x35 () Real)
(declare-fun x36 () Real)
(declare-fun x37 () Real)
(declare-fun x38 () Real)
(declare-fun x39 () Real)
(declare-fun x40 () Real)
(declare-fun x41 () Real)
(declare-fun x42 () Real)
(declare-fun x43 () Real)
(declare-fun x44 () Real)
(declare-fun x45 () Real)
(declare-fun x46 () Real)
(declare-fun x47 () Real)
(declare-fun x48 () Real)
(declare-fun x49 () Real)
(declare-fun f0_1 (Real) Real)
(declare-fun f0_2 (Real Real) Real)
(declare-fun f0_3 (Real Real Real) Real)
(declare-fun f0_4 (Real Real Real Real) Real)
(declare-fun P0 () Bool)
(declare-fun P1 () Bool)
(declare-fun P2 () Bool)
(declare-fun P3 () Bool)
(declare-fun P4 () Bool)
(declare-fun P5 () Bool)
(declare-fun P6 () Bool)
(declare-fun P7 () Bool)
(declare-fun P8 () Bool)
(declare-fun P9 () Bool)
(declare-fun P10 () Bool)
(declare-fun P11 () Bool)
(declare-fun P12 () Bool)
(declare-fun P13 () Bool)
(declare-fun P14 () Bool)
(declare-fun P15 () Bool)
(declare-fun P16 () Bool)
(declare-fun P17 () Bool)
(declare-fun P18 () Bool)
(declare-fun P19 () Bool)
(declare-fun P20 () Bool)
(declare-fun P21 () Bool)
(declare-fun P22 () Bool)
(declare-fun P23 () Bool)
(declare-fun P24 () Bool)
(declare-fun P25 () Bool)
(declare-fun P26 () Bool)
(declare-fun P27 () Bool)
(declare-fun P28 () Bool)
(declare-fun P29 () Bool)
(declare-fun P30 () Bool)
(declare-fun P31 () Bool)
(declare-fun P32 () Bool)
(declare-fun P33 () Bool)
(declare-fun P34 () Bool)
(declare-fun P35 () Bool)
(declare-fun P36 () Bool)
(declare-fun P37 () Bool)
(declare-fun P38 () Bool)
(declare-fun P39 () Bool)
(declare-fun P40 () Bool)
(declare-fun P41 () Bool)
(declare-fun P42 () Bool)
(declare-fun P43 () Bool)
(declare-fun P44 () Bool)
(declare-fun P45 () Bool)
(declare-fun P46 () Bool)
(declare-fun P47 () Bool)
(declare-fun P48 () Bool)
(declare-fun P49 () Bool)
(assert (let ((?v_53 (<= (+ (- (* 11 x7) (* 17 x43)) (* 17 x8)) 10)) (?v_91 (* 3 x15)) (?v_37 (* 16 x35)) (?v_36 (* 17 x28))) (let ((?v_87 (= (+ (- ?v_36 ?v_37) (* 12 x27)) 22)) (?v_100 (* 27 x48)) (?v_93 (distinct (+ (- (* 23 x23) (* 9 x30)) (* 26 x49)) 27)) (?v_130 (< (- (- (* 18 x39) (* 6 x11)) (* 10 x17)) 5)) (?v_154 (< (- (- (* 6 x27) (* 16 x7)) (* 9 x31)) 21)) (?v_62 (<= (- (+ (* 21 x0) (* 19 x45)) (* 2 x6)) 8)) (?v_47 (* 25 x33)) (?v_19 (* 18 x38)) (?v_97 (* 12 x37)) (?v_145 (< (- (+ (* 11 x34) (* 14 x34)) (* 15 x23)) 23)) (?v_186 (distinct (- (+ (* 20 x48) (* 4 x30)) (* 18 x47)) 2))) (let ((?v_153 (< (- (+ (* 24 x28) (* 20 x32)) ?v_97) 12)) (?v_0 (f0_1 x39))) (let ((?v_82 (= ?v_0 (f0_2 x29 x45))) (?v_160 (distinct x28 x8)) (?v_121 (= (f0_2 x27 x26) (f0_2 x47 x20))) (?v_165 (distinct (f0_2 x6 x7) x0)) (?v_104 (= x40 (f0_1 x23))) (?v_177 (distinct (f0_2 x48 x47) (f0_1 x22))) (?v_209 (distinct (f0_1 x4) (f0_2 x10 x46))) (?v_45 (distinct (f0_2 x49 x29) (f0_2 x7 x33))) (?v_117 (distinct x10 x42)) (?v_70 (f0_1 x34))) (let ((?v_74 (= x41 ?v_70)) (?v_80 (distinct x30 x20)) (?v_59 (f0_1 x17))) (let ((?v_77 (distinct ?v_59 (f0_2 x33 x4))) (?v_248 (distinct x9 x9)) (?v_14 (f0_1 x30))) (let ((?v_71 (distinct (f0_2 x44 x35) ?v_14)) (?v_43 (distinct (f0_1 x46) x42)) (?v_48 (distinct (f0_2 x12 x11) x15)) (?v_29 (= (f0_2 x40 x28) (f0_2 x25 x30))) (?v_52 (distinct x8 x24)) (?v_15 (= (f0_2 x42 x32) ?v_14)) (?v_240 (= x18 (f0_2 x26 x14))) (?v_111 (= x33 (f0_2 x41 x14))) (?v_6 (f0_1 x44))) (let ((?v_28 (distinct ?v_6 (f0_2 x38 x13))) (?v_25 (distinct (f0_2 x15 x32) ?v_0)) (?v_103 (distinct (f0_1 x19) (f0_2 x36 x32))) (?v_60 (f0_1 x5))) (let ((?v_41 (= ?v_60 (f0_2 x13 x8))) (?v_134 (= (f0_2 x48 x39) (f0_1 x7))) (?v_171 (= x29 (f0_2 x15 x30))) (?v_237 (= (f0_1 x32) (f0_1 x41))) (?v_2 (distinct ?v_0 (f0_2 x2 x21))) (?v_69 (f0_1 x47))) (let ((?v_65 (distinct (f0_2 x22 x47) ?v_69)) (?v_155 (= (f0_1 x10) x39)) (?v_13 (= (f0_1 x6) (f0_2 x47 x39))) (?v_38 (= x13 (f0_1 x35))) (?v_50 (distinct (f0_2 x32 x5) x9)) (?v_127 (distinct (f0_1 x36) (f0_1 x0))) (?v_44 (= ?v_14 (f0_1 x37))) (?v_11 (distinct ?v_59 ?v_6)) (?v_185 (= (f0_1 x25) (f0_1 x13))) (?v_192 (= (f0_1 x8) (f0_2 x6 x40))) (?v_225 (distinct (f0_2 x24 x15) x30)) (?v_102 (= (f0_2 x47 x33) ?v_60)) (?v_81 (= x10 (f0_1 x43))) (?v_152 (= (f0_2 x38 x3) x26)) (?v_107 (= ?v_69 ?v_70)) (?v_175 (= x18 (f0_2 x24 x8))) (?v_149 (distinct x17 (f0_1 x12))) (?v_216 (= x9 (f0_2 x5 x29))) (?v_32 (distinct (f0_2 x34 x35) (f0_1 x24))) (?v_148 (distinct (f0_2 x12 x44) (f0_2 x49 x28))) (?v_142 (= (f0_2 x39 x33) (f0_2 x35 x7))) (?v_8 (not P28)) (?v_135 (not P49)) (?v_63 (not ?v_25)) (?v_4 (not ?v_240)) (?v_1 (not ?v_145)) (?v_9 (not P42)) (?v_49 (not P15)) (?v_114 (not P2)) (?v_92 (not P21)) (?v_23 (not P7)) (?v_215 (not P27)) (?v_5 (not P30)) (?v_68 (not ?v_111)) (?v_3 (not ?v_209))) (let ((?v_133 (not ?v_155)) (?v_95 (not P12)) (?v_64 (not ?v_65)) (?v_24 (not P26)) (?v_7 (not ?v_127)) (?v_73 (not ?v_28)) (?v_55 (not P33)) (?v_35 (not P19)) (?v_90 (not ?v_74)) (?v_168 (not ?v_11)) (?v_18 (not P8)) (?v_131 (not P44)) (?v_159 (not P23)) (?v_116 (not ?v_50)) (?v_245 (not ?v_103)) (?v_161 (not ?v_44)) (?v_157 (not ?v_165)) (?v_56 (not P10)) (?v_26 (not ?v_45)) (?v_76 (not ?v_192)) (?v_239 (not P37)) (?v_40 (not ?v_186)) (?v_132 (not P4)) (?v_136 (not ?v_41)) (?v_180 (not ?v_134)) (?v_72 (not ?v_71)) (?v_166 (not ?v_117)) (?v_88 (not P29)) (?v_46 (not ?v_48)) (?v_144 (not P34)) (?v_151 (not ?v_38)) (?v_54 (not ?v_82)) (?v_206 (not P36)) (?v_213 (not P38)) (?v_58 (not P13)) (?v_75 (not P31)) (?v_83 (not ?v_52)) (?v_198 (not ?v_185)) (?v_202 (not ?v_102)) (?v_178 (not ?v_15)) (?v_128 (not ?v_153)) (?v_122 (not P6)) (?v_258 (not ?v_77)) (?v_211 (not ?v_2)) (?v_197 (not P9)) (?v_150 (not P35)) (?v_89 (not ?v_87)) (?v_106 (not ?v_93)) (?v_231 (not P41)) (?v_163 (not P17)) (?v_190 (not ?v_32)) (?v_221 (not P20)) (?v_174 (not ?v_13)) (?v_217 (not ?v_107)) (?v_137 (not P39)) (?v_170 (not P48)) (?v_118 (not ?v_248)) (?v_143 (not P3)) (?v_162 (not ?v_121)) (?v_181 (not ?v_80)) (?v_232 (not P43)) (?v_210 (not P14)) (?v_169 (not ?v_81)) (?v_158 (not ?v_142)) (?v_182 (not ?v_149)) (?v_230 (not ?v_148)) (?v_173 (not ?v_104)) (?v_193 (not ?v_130)) (?v_156 (not ?v_152)) (?v_204 (not P0)) (?v_200 (not ?v_160)) (?v_195 (not P40)) (?v_222 (not ?v_171)) (?v_183 (not P25)) (?v_187 (not ?v_177)) (?v_208 (not P22)) (?v_201 (not P5)) (?v_249 (not ?v_225)) (?v_223 (not ?v_175)) (?v_242 (not P16)) (?v_214 (not P32)) (?v_233 (not ?v_53)) (?v_241 (not ?v_43)) (?v_254 (not P11)) (?v_257 (not ?v_216)) (?v_219 (not ?v_237)) (?v_234 (not ?v_62)) (?v_238 (not ?v_29)) (?v_235 (not P46)) (?v_252 (not P45)) (?v_244 (not ?v_154)) (?v_246 (not P47)) (?v_27 (<= (+ x6 (* 13 x36) (* 25 x25)) 13))) (let ((?v_79 (not ?v_27)) (?v_124 (= (+ (* 19 x30) (* 14 x33) x15) 25)) (?v_108 (<= (+ (* 5 x3) (* 6 x3) (* 9 x13)) 16)) (?v_78 (< (- (- (* 27 x19) (* 13 x33)) x33) 26)) (?v_189 (< (+ ?v_91 (* 3 x1) (* 11 x4)) 1))) (let ((?v_126 (not ?v_189)) (?v_179 (<= (- (- (* 11 x3) 0) ?v_97) 14)) (?v_123 (not ?v_108)) (?v_176 (= (+ (* 10 x2) (* 23 x1) (* 18 x35)) 12)) (?v_196 (not ?v_78))) (let ((?v_191 (not ?v_176)) (?v_199 (not ?v_179)) (?v_259 (not ?v_124)) (?v_129 (<= (+ (* 26 x22) (* 17 x38)) (- 15))) (?v_113 (distinct (* 7 x37) (- 19)))) (let ((?v_119 (not ?v_113)) (?v_17 (< (- (+ (* (- 3) x47) ?v_47) (* 14 x10)) 25))) (let ((?v_61 (not ?v_17)) (?v_256 (< (+ (- (* (- 21) x20) (* 21 x44)) (* 5 x30)) 20))) (let ((?v_228 (not ?v_256)) (?v_33 (= (- (- (* (- 18) x5) (* 26 x10)) 0) (- 20))) (?v_22 (< (+ (* (- 18) x28) (* 9 x14) (* 2 x24)) 8))) (let ((?v_147 (not ?v_22)) (?v_10 (<= (- (- (* (- 10) x20) ?v_36) (* 15 x6)) (- 28))) (?v_12 (<= (- (+ (* 21 x28) (* 16 x41)) (* 22 x36)) (- 25)))) (let ((?v_139 (not ?v_12)) (?v_16 (< (+ (* (- 13) x40) (* 5 x8) (* 22 x25)) 9))) (let ((?v_236 (not ?v_16)) (?v_57 (= (+ (* 5 x43) (* 18 x23) (* 14 x12)) (- 13))) (?v_34 (not ?v_10)) (?v_96 (= (+ (- (* 20 x46) (* 13 x12)) (* 12 x3)) (- 4)))) (let ((?v_20 (not ?v_96)) (?v_30 (<= (- (+ (* (- 27) x0) (* 27 x44)) (* 13 x29)) 2)) (?v_138 (<= (- (- (* (- 11) x17) ?v_19) (* 6 x47)) (- 12)))) (let ((?v_31 (not ?v_138)) (?v_42 (<= (- (- x6 (* 7 x1)) (* 11 x13)) (- 9))) (?v_21 (< (- (- (* (- 10) x33) (* 24 x16)) (* 25 x24)) (- 21)))) (let ((?v_39 (not ?v_21)) (?v_51 (< (+ (* 2 x2) ?v_19) (- 28)))) (let ((?v_218 (not ?v_51)) (?v_164 (< (+ (* 17 x22) (* 26 x25) ?v_100) (- 14))) (?v_86 (< (- (- (* (- 13) x23) (* 27 x35)) ?v_37) 15))) (let ((?v_67 (not ?v_86)) (?v_66 (not ?v_42)) (?v_220 (<= (- (- (* (- 2) x9) (* 23 x19)) (* 26 x36)) (- 19))) (?v_84 (< (+ (- (* (- 6) x37) (* 27 x37)) (* 4 x27)) 7)) (?v_205 (<= (- x21 (* 20 x5)) (- 28)))) (let ((?v_260 (not ?v_205)) (?v_85 (< (- (- (* 4 x11) (* 12 x30)) ?v_47) (- 13))) (?v_253 (not ?v_57)) (?v_94 (<= (+ (- (* (- 14) x45) ?v_91) (* 17 x44)) 21))) (let ((?v_207 (not ?v_94)) (?v_109 (<= (- (+ (* (- 8) x17) (* 17 x11)) (* 19 x18)) (- 12))) (?v_98 (<= (- (+ (* (- 11) x11) (* 24 x34)) (* 8 x10)) 21)) (?v_99 (not ?v_84)) (?v_146 (= (- (- (* (- 4) x34) (* 16 x21)) (* 10 x13)) 10))) (let ((?v_110 (not ?v_146)) (?v_212 (< (+ (- (* (- 13) x16) (* 3 x32)) (* 16 x30)) (- 17))) (?v_203 (<= (- (- (* (- 15) x35) (* 26 x8)) (* 17 x1)) (- 4))) (?v_125 (<= (- (- (* (- 11) x1) (* 9 x45)) (* 23 x8)) 20))) (let ((?v_101 (not ?v_125)) (?v_184 (not ?v_98)) (?v_115 (distinct (- (- (* (- 25) x40) ?v_100) (* 17 x46)) 4)) (?v_172 (< (+ (* (- 22) x19) (* 26 x37)) (- 22))) (?v_112 (not ?v_33)) (?v_105 (not ?v_30)) (?v_140 (not ?v_109)) (?v_188 (distinct (+ (* (- 16) x10) (* 5 x26) (* 11 x2)) 8))) (let ((?v_167 (not ?v_188)) (?v_120 (not ?v_115)) (?v_141 (<= (+ (* 7 x23) (* 14 x14) (* 4 x46)) (- 16))) (?v_194 (< (- (+ (* 20 x28) (* 25 x5)) (* 7 x36)) (- 3)))) (let ((?v_229 (not ?v_141)) (?v_243 (not ?v_85)) (?v_250 (not ?v_164)) (?v_224 (not ?v_203)) (?v_226 (not ?v_220)) (?v_227 (not ?v_129)) (?v_255 (not ?v_212)) (?v_247 (not ?v_194)) (?v_251 (not ?v_172))) (and (and (and (and (and (and (and (and (and (and (and (and (and (and (and (and (and (and (and (and (and (and (and (and (and (and (and (and (and (and (and (and (and (and (and (and (and (and (and (and (and (and (and (and (and (and (and (and (and (and (and (and (and (and (and (and (and (and (and (and (and (and (and (and (and (and (and (and (and (and (and (and (and (and (and (and (and (and (and (and (and (and (and (and (and (and (and (and (and (and (and (and (and (and (and (and (and (and (and (and (and (and (and (and (and (and (and (and (and (and (and (and (and (and (and (and (and (and (and (and (and (and (and (and (and (and (and (and (and (and (and (and (and (and (and (and (and (and (and (and (and (and (and (and (and (and (and (and (and (and (and (and (and (and (and (and (and (and (and (and (and (and (and (and (and (and (and (and (and (and (and (and (and (and (and (and (and (and (and (and (and (and (and (and (and (and (and (and (and (and (and (and (and (and (and (and (and (and (and (and (and (and (and (and (and (and (and (and (and (and (and (and (and (and (and (and (and (and (and (and (and (and (and (and (and (and (and (and (and (and (and (and (and (and (and (and (and (and (and (and (and (and (and (and (and (and (and (and (and (and (and (and (and (and (and (and (and (and (and (and (and (and (and (and (and (and (and (and (and (and (and (and (and (and (and (and (and (and (and (and (and (and (and (and (and (and (and (and (and (and (and (and (and (and (and (and (and (and (and (and (and (and (and (and (and (and (and (and (and (and (and (and (and (and (and (and (and (and (and (and (and (and (and (and (and (and (and (and (and (and (and (and (and (and (and (and (and (and (and (and (and (and (and (and (and (and (and (and (and (and (and (and (and (and (and (and (and (and (and (and (and (and (and (and (and (and (and (and (and (and (and (and (and (and (and (and (and (and (and (and (and (and (and (and (and (and (and (and (and (and (and (and (and (and (and (and (and (and (and (and (and (and (and (and (and (and (and (and (and (and (and (and (and (and (and (and (and (and (and (and (and (and (and (and (and (and (and (and (and (and (and (and (and (and (and (and (and (and (and (and (and (and (and (and (and (and (and (and (and (and (and (and (and (and (and (and (and (and (and (and (and (and (and (and (and (and (and (and (and (and (and (and (and (and (and (and (and (and (and (and (and (and (and (and (and (and (and (and (and (and (and (and (and (and (and (and (and (and (and (and (and (and (and (and (and (and (and (and (and (and (and (and (and (and (and (and (and (and (and (and (and (and (and (and (and (and (and (and (and (and (and (and (and (and (and (and (and (and (and (and (and (and (and (and (and (and (and (and (and (and (and (and (and (and (and (and (and (and (and (and (and (and (and (and (and (and (and (and (and (and (and (and (and (and (and (and (and (and (and (and (and (and (and (and (and (and (and (and (and (and (and (and (and (and (and (and (and (and (and (or (or ?v_8 ?v_135) ?v_2) (or (or ?v_32 P14) ?v_129)) (or (or P31 ?v_63) ?v_11)) (or (or ?v_104 ?v_119) ?v_61)) (or (or ?v_4 ?v_1) ?v_160)) (or (or ?v_9 ?v_43) ?v_228)) (or (or ?v_15 ?v_121) ?v_49)) (or (or ?v_114 ?v_1) ?v_13)) (or (or ?v_33 ?v_2) ?v_92)) (or (or ?v_23 ?v_215) P45)) (or (or P5 ?v_79) P43)) (or (or ?v_5 ?v_68) ?v_52)) (or (or ?v_3 ?v_147) ?v_133)) (or (or ?v_95 ?v_10) ?v_64)) (or (or P32 ?v_24) ?v_139)) (or (or ?v_3 ?v_4) ?v_7)) (or (or ?v_236 ?v_5) ?v_73)) (or (or ?v_7 ?v_8) ?v_55)) (or (or ?v_9 P8) ?v_57)) (or (or ?v_35 ?v_34) ?v_90)) (or (or ?v_154 ?v_20) ?v_30)) (or (or ?v_168 ?v_18) ?v_38)) (or (or P34 ?v_93) ?v_131)) (or (or ?v_4 ?v_12) ?v_159)) (or (or P38 ?v_13) ?v_10)) (or (or ?v_62 P9) ?v_31)) (or (or ?v_116 ?v_245) ?v_42)) (or (or ?v_161 ?v_15) ?v_16)) (or (or ?v_17 ?v_18) ?v_157)) (or (or ?v_39 ?v_218) ?v_20)) (or (or P35 ?v_29) P32)) (or (or ?v_21 P41) ?v_22)) (or (or ?v_23 ?v_56) ?v_24)) (or (or ?v_26 P42) ?v_76)) (or (or ?v_25 P28) P43)) (or (or ?v_53 ?v_26) ?v_239)) (or (or ?v_164 ?v_27) ?v_40)) (or (or ?v_132 ?v_136) ?v_28)) (or (or ?v_29 ?v_30) ?v_31)) (or (or ?v_16 ?v_67) ?v_32)) (or (or ?v_33 ?v_34) P26)) (or (or ?v_180 ?v_35) P47)) (or (or ?v_81 ?v_87) ?v_32)) (or (or ?v_72 ?v_166) ?v_38)) (or (or ?v_88 ?v_46) ?v_39)) (or (or ?v_40 ?v_41) ?v_66)) (or (or ?v_220 ?v_144) ?v_43)) (or (or ?v_44 ?v_124) ?v_12)) (or (or P41 ?v_151) ?v_45)) (or (or ?v_54 ?v_84) ?v_260)) (or (or ?v_80 ?v_46) ?v_3)) (or (or ?v_85 ?v_48) ?v_49)) (or (or ?v_142 ?v_206) ?v_213)) (or (or ?v_50 ?v_39) ?v_58)) (or (or ?v_75 ?v_51) ?v_83)) (or (or ?v_53 ?v_10) ?v_54)) (or (or ?v_55 ?v_56) ?v_108)) (or (or P3 ?v_253) (not P18))) (or (or ?v_198 P20) ?v_58)) (or (or ?v_77 P17) P37)) (or (or ?v_202 P15) ?v_78)) (or (or ?v_61 ?v_207) ?v_62)) (or (or P18 P30) P46)) (or (or ?v_63 ?v_178) P32)) (or (or ?v_64 ?v_65) P47)) (or (or ?v_40 ?v_130) P45)) (or (or P2 ?v_66) ?v_31)) (or (or ?v_67 (not P1)) ?v_33)) (or (or P44 P23) ?v_68)) (or (or P4 ?v_107) ?v_71)) (or (or ?v_8 ?v_72) ?v_61)) (or (or ?v_18 ?v_128) ?v_73)) (or (or ?v_74 ?v_122) ?v_109)) (or (or ?v_75 ?v_76) ?v_258)) (or (or P29 ?v_78) ?v_79)) (or (or ?v_211 ?v_152) ?v_30)) (or (or P17 P39) ?v_98)) (or (or ?v_80 P25) ?v_23)) (or (or ?v_25 P29) ?v_81)) (or (or ?v_33 ?v_13) ?v_82)) (or (or ?v_83 ?v_99) P44)) (or (or ?v_85 ?v_72) P38)) (or (or ?v_57 ?v_86) ?v_12)) (or (or P8 ?v_197) ?v_150)) (or (or ?v_89 ?v_110) ?v_32)) (or (or ?v_88 ?v_74) ?v_2)) (or (or ?v_89 ?v_90) ?v_1)) (or (or ?v_126 ?v_75) ?v_212)) (or (or ?v_92 ?v_106) ?v_231)) (or (or ?v_90 ?v_203) ?v_216)) (or (or ?v_101 ?v_39) P18)) (or (or ?v_39 P23) ?v_94)) (or (or ?v_46 ?v_95) ?v_96)) (or (or ?v_71 ?v_163) ?v_190)) (or (or ?v_179 ?v_184) ?v_99)) (or (or P1 ?v_115) ?v_221)) (or (or ?v_84 ?v_174) ?v_101)) (or (or ?v_172 ?v_102) ?v_112)) (or (or ?v_103 ?v_105) ?v_94)) (or (or P29 ?v_104) ?v_78)) (or (or ?v_35 ?v_105) P29)) (or (or ?v_18 P23) ?v_55)) (or (or ?v_106 ?v_83) P25)) (or (or ?v_217 ?v_61) ?v_123)) (or (or ?v_1 ?v_137) ?v_140)) (or (or ?v_170 ?v_110) ?v_167)) (or (or ?v_111 ?v_175) ?v_55)) (or (or ?v_118 ?v_112) ?v_12)) (or (or ?v_143 P12) ?v_104)) (or (or ?v_22 ?v_20) ?v_113)) (or (or ?v_112 ?v_114) ?v_120)) (or (or ?v_116 ?v_112) ?v_117)) (or (or ?v_76 P49) ?v_118)) (or (or ?v_12 ?v_119) ?v_171)) (or (or ?v_49 P10) P1)) (or (or ?v_26 ?v_120) ?v_9)) (or (or P36 ?v_94) ?v_109)) (or (or ?v_141 ?v_58) ?v_162)) (or (or ?v_13 ?v_67) ?v_122)) (or (or P3 P48) ?v_123)) (or (or P36 ?v_87) ?v_148)) (or (or ?v_124 ?v_57) P46)) (or (or ?v_125 ?v_29) ?v_181)) (or (or ?v_232 ?v_126) ?v_65)) (or (or P9 ?v_32) ?v_210)) (or (or ?v_127 ?v_75) ?v_4)) (or (or ?v_114 P15) ?v_2)) (or (or ?v_73 ?v_128) ?v_129)) (or (or P47 ?v_81) ?v_117)) (or (or ?v_169 ?v_62) ?v_130)) (or (or ?v_11 ?v_109) ?v_194)) (or (or P29 P9) P36)) (or (or ?v_84 ?v_126) ?v_131)) (or (or ?v_132 ?v_2) ?v_114)) (or (or P31 ?v_133) P25)) (or (or ?v_27 ?v_115) ?v_42)) (or (or ?v_134 P16) ?v_108)) (or (or P22 ?v_45) ?v_51)) (or (or ?v_98 ?v_135) ?v_39)) (or (or P5 ?v_58) ?v_136)) (or (or ?v_86 ?v_137) ?v_84)) (or (or ?v_138 P44) ?v_139)) (or (or ?v_140 P38) ?v_229)) (or (or ?v_105 ?v_158) ?v_107)) (or (or ?v_143 P10) ?v_53)) (or (or ?v_87 ?v_144) ?v_145)) (or (or P9 ?v_122) ?v_94)) (or (or ?v_23 ?v_55) ?v_20)) (or (or ?v_29 ?v_10) ?v_146)) (or (or ?v_106 ?v_65) ?v_81)) (or (or ?v_182 ?v_147) ?v_121)) (or (or ?v_136 ?v_177) P6)) (or (or ?v_2 ?v_55) P45)) (or (or ?v_104 P27) ?v_176)) (or (or P29 ?v_230) ?v_173)) (or (or P1 ?v_2) ?v_149)) (or (or ?v_15 ?v_42) ?v_120)) (or (or ?v_71 ?v_193) ?v_134)) (or (or ?v_114 ?v_61) ?v_138)) (or (or ?v_150 ?v_75) ?v_76)) (or (or ?v_151 ?v_156) P21)) (or (or ?v_153 ?v_39) ?v_204)) (or (or P14 ?v_154) ?v_93)) (or (or ?v_155 ?v_127) ?v_128)) (or (or ?v_156 ?v_46) P33)) (or (or ?v_107 ?v_157) ?v_130)) (or (or ?v_25 ?v_30) ?v_158)) (or (or P28 ?v_108) ?v_196)) (or (or ?v_5 ?v_88) ?v_35)) (or (or ?v_152 ?v_43) ?v_123)) (or (or P47 P46) ?v_108)) (or (or ?v_136 P13) ?v_155)) (or (or ?v_159 P49) ?v_243)) (or (or ?v_200 ?v_195) ?v_39)) (or (or ?v_21 ?v_99) ?v_24)) (or (or ?v_161 ?v_162) ?v_49)) (or (or ?v_121 ?v_143) ?v_55)) (or (or ?v_157 ?v_163) ?v_164)) (or (or ?v_107 ?v_165) P9)) (or (or P9 ?v_62) ?v_166)) (or (or ?v_24 ?v_167) ?v_18)) (or (or P0 ?v_129) ?v_153)) (or (or P35 ?v_38) ?v_115)) (or (or ?v_133 ?v_168) ?v_50)) (or (or ?v_38 ?v_76) ?v_163)) (or (or ?v_75 ?v_169) ?v_151)) (or (or ?v_170 ?v_136) ?v_222)) (or (or ?v_172 ?v_4) ?v_173)) (or (or ?v_174 ?v_175) P29)) (or (or ?v_40 ?v_110) ?v_74)) (or (or ?v_128 ?v_68) ?v_183)) (or (or ?v_191 ?v_187) ?v_3)) (or (or ?v_178 ?v_199) ?v_208)) (or (or ?v_77 ?v_180) ?v_177)) (or (or ?v_181 P33) ?v_182)) (or (or ?v_12 ?v_167) ?v_160)) (or (or ?v_201 ?v_176) ?v_183)) (or (or ?v_184 ?v_180) ?v_82)) (or (or ?v_41 ?v_10) ?v_185)) (or (or P41 ?v_128) ?v_249)) (or (or ?v_184 ?v_32) ?v_73)) (or (or ?v_10 ?v_186) ?v_181)) (or (or ?v_185 ?v_23) ?v_35)) (or (or ?v_111 ?v_187) P49)) (or (or ?v_35 ?v_102) ?v_43)) (or (or P7 P10) ?v_148)) (or (or ?v_132 ?v_188) ?v_26)) (or (or ?v_28 ?v_189) ?v_187)) (or (or ?v_190 ?v_191) ?v_192)) (or (or ?v_64 ?v_90) ?v_99)) (or (or ?v_101 ?v_193) ?v_194)) (or (or ?v_223 P44) ?v_195)) (or (or ?v_30 ?v_89) ?v_134)) (or (or ?v_136 ?v_242) P15)) (or (or P20 ?v_196) ?v_124)) (or (or P12 ?v_82) ?v_86)) (or (or ?v_197 ?v_155) ?v_30)) (or (or ?v_198 ?v_110) ?v_7)) (or (or ?v_154 ?v_81) ?v_174)) (or (or ?v_135 ?v_133) P14)) (or (or ?v_62 ?v_94) ?v_85)) (or (or ?v_183 P39) ?v_38)) (or (or ?v_55 ?v_199) ?v_90)) (or (or ?v_145 ?v_22) P9)) (or (or P35 ?v_190) ?v_139)) (or (or ?v_129 P38) P16)) (or (or P36 P22) ?v_164)) (or (or ?v_200 ?v_65) ?v_185)) (or (or P9 ?v_201) ?v_138)) (or (or ?v_99 P41) ?v_110)) (or (or ?v_157 ?v_165) P48)) (or (or ?v_202 ?v_189) ?v_86)) (or (or P27 ?v_168) P3)) (or (or ?v_139 ?v_203) ?v_29)) (or (or ?v_204 ?v_199) ?v_2)) (or (or ?v_205 P25) ?v_76)) (or (or ?v_186 ?v_52) ?v_92)) (or (or ?v_206 ?v_150) ?v_207)) (or (or ?v_21 ?v_201) ?v_26)) (or (or P33 P37) ?v_250)) (or (or ?v_145 ?v_169) P25)) (or (or ?v_41 P7) P8)) (or (or ?v_26 ?v_208) ?v_214)) (or (or ?v_35 ?v_188) ?v_143)) (or (or ?v_104 ?v_136) ?v_62)) (or (or ?v_193 P16) ?v_233)) (or (or ?v_134 ?v_30) P38)) (or (or ?v_79 P17) ?v_76)) (or (or ?v_209 ?v_107) ?v_23)) (or (or ?v_147 ?v_206) ?v_53)) (or (or P26 ?v_160) ?v_75)) (or (or ?v_106 ?v_153) ?v_79)) (or (or ?v_41 ?v_177) ?v_196)) (or (or ?v_210 ?v_56) ?v_128)) (or (or P25 ?v_211) ?v_115)) (or (or ?v_115 ?v_212) ?v_123)) (or (or ?v_106 ?v_106) ?v_180)) (or (or ?v_241 ?v_29) ?v_31)) (or (or ?v_140 ?v_254) ?v_124)) (or (or ?v_213 ?v_61) ?v_188)) (or (or ?v_214 ?v_53) P10)) (or (or ?v_215 ?v_65) P40)) (or (or ?v_112 ?v_15) ?v_156)) (or (or ?v_216 ?v_93) P4)) (or (or P43 ?v_257) ?v_16)) (or (or ?v_25 ?v_90) P17)) (or (or ?v_152 ?v_122) ?v_194)) (or (or P1 ?v_219) P5)) (or (or ?v_179 ?v_217) ?v_78)) (or (or P23 ?v_224) ?v_116)) (or (or ?v_210 ?v_51) ?v_150)) (or (or ?v_200 ?v_118) ?v_18)) (or (or P11 ?v_110) P13)) (or (or ?v_79 ?v_199) ?v_85)) (or (or ?v_10 ?v_48) P37)) (or (or ?v_44 P7) ?v_77)) (or (or ?v_107 ?v_21) ?v_114)) (or (or ?v_218 P14) ?v_82)) (or (or ?v_219 ?v_190) ?v_197)) (or (or P43 ?v_206) P33)) (or (or ?v_114 P32) ?v_118)) (or (or ?v_117 ?v_149) ?v_101)) (or (or ?v_134 ?v_187) ?v_226)) (or (or ?v_221 ?v_222) ?v_223)) (or (or ?v_61 ?v_149) ?v_139)) (or (or ?v_146 ?v_224) P26)) (or (or P6 ?v_225) ?v_55)) (or (or ?v_151 ?v_75) ?v_106)) (or (or ?v_155 ?v_208) ?v_113)) (or (or ?v_227 ?v_218) P46)) (or (or ?v_109 ?v_177) ?v_15)) (or (or ?v_226 ?v_131) ?v_193)) (or (or ?v_51 ?v_29) ?v_85)) (or (or ?v_31 ?v_195) ?v_88)) (or (or P14 ?v_127) ?v_44)) (or (or P46 ?v_234) ?v_215)) (or (or ?v_147 ?v_180) ?v_223)) (or (or ?v_133 ?v_20) ?v_43)) (or (or ?v_139 P9) ?v_227)) (or (or ?v_61 ?v_224) ?v_149)) (or (or ?v_182 ?v_255) ?v_227)) (or (or P46 ?v_201) P8)) (or (or ?v_87 P41) P20)) (or (or ?v_1 P2) ?v_228)) (or (or ?v_40 ?v_131) ?v_229)) (or (or P16 ?v_121) ?v_226)) (or (or ?v_194 P18) P45)) (or (or ?v_259 P8) ?v_99)) (or (or ?v_204 ?v_71) ?v_52)) (or (or ?v_106 P3) ?v_65)) (or (or ?v_216 ?v_63) ?v_155)) (or (or P15 ?v_7) ?v_22)) (or (or P40 ?v_145) ?v_85)) (or (or ?v_98 ?v_230) P48)) (or (or ?v_33 ?v_73) ?v_157)) (or (or ?v_115 P4) ?v_176)) (or (or ?v_171 ?v_188) ?v_192)) (or (or ?v_101 ?v_86) ?v_89)) (or (or P30 P43) ?v_61)) (or (or ?v_7 ?v_153) ?v_225)) (or (or P28 P31) ?v_105)) (or (or P48 ?v_2) ?v_162)) (or (or ?v_106 P30) ?v_49)) (or (or ?v_151 ?v_54) ?v_39)) (or (or ?v_231 ?v_106) ?v_247)) (or (or ?v_48 ?v_41) ?v_164)) (or (or ?v_155 ?v_26) ?v_220)) (or (or ?v_158 ?v_164) ?v_185)) (or (or ?v_182 ?v_238) ?v_24)) (or (or ?v_162 ?v_86) ?v_89)) (or (or P18 ?v_38) ?v_20)) (or (or ?v_132 ?v_1) ?v_123)) (or (or ?v_44 ?v_135) ?v_39)) (or (or ?v_177 ?v_235) ?v_143)) (or (or P42 ?v_115) ?v_133)) (or (or ?v_65 ?v_72) ?v_76)) (or (or ?v_187 ?v_116) ?v_131)) (or (or ?v_252 ?v_134) ?v_68)) (or (or ?v_141 P39) ?v_110)) (or (or ?v_125 ?v_35) ?v_4)) (or (or ?v_109 ?v_76) ?v_125)) (or (or ?v_3 ?v_28) P15)) (or (or ?v_152 P44) ?v_20)) (or (or ?v_7 ?v_152) ?v_83)) (or (or ?v_103 ?v_86) ?v_3)) (or (or P32 ?v_214) ?v_232)) (or (or ?v_189 P45) ?v_44)) (or (or ?v_181 ?v_101) P26)) (or (or ?v_181 ?v_233) ?v_222)) (or (or ?v_151 ?v_8) ?v_154)) (or (or ?v_177 P38) ?v_151)) (or (or P14 P25) ?v_194)) (or (or P45 ?v_244) P18)) (or (or ?v_160 ?v_234) P46)) (or (or ?v_177 ?v_176) ?v_180)) (or (or ?v_16 ?v_146) P0)) (or (or ?v_132 ?v_181) ?v_90)) (or (or ?v_126 P28) P0)) (or (or ?v_120 P48) ?v_192)) (or (or ?v_209 ?v_81) ?v_227)) (or (or ?v_223 ?v_205) ?v_173)) (or (or ?v_53 ?v_30) ?v_116)) (or (or ?v_157 P32) ?v_34)) (or (or ?v_133 ?v_155) ?v_136)) (or (or P9 ?v_131) ?v_15)) (or (or ?v_171 ?v_82) ?v_158)) (or (or ?v_235 P46) ?v_163)) (or (or ?v_78 ?v_122) P15)) (or (or ?v_204 ?v_93) ?v_34)) (or (or ?v_12 ?v_58) P21)) (or (or P30 ?v_121) ?v_35)) (or (or P0 ?v_138) ?v_191)) (or (or ?v_2 ?v_122) ?v_109)) (or (or ?v_103 ?v_38) ?v_186)) (or (or ?v_29 ?v_207) ?v_162)) (or (or ?v_246 P37) ?v_11)) (or (or ?v_213 ?v_207) P33)) (or (or P21 ?v_135) ?v_251)) (or (or ?v_42 ?v_142) P45)) (or (or ?v_61 P27) P11)) (or (or ?v_57 ?v_102) P30)) (or (or P49 ?v_224) ?v_120)) (or (or ?v_12 ?v_133) ?v_109)) (or (or ?v_126 ?v_178) ?v_76)) (or (or ?v_2 ?v_133) P21)) (or (or ?v_193 P37) ?v_166)) (or (or P38 ?v_224) ?v_141)) (or (or ?v_31 ?v_107) ?v_105)) (or (or P32 ?v_82) ?v_90)) (or (or ?v_236 ?v_218) P27)) (or (or ?v_214 ?v_55) ?v_237)) (or (or ?v_159 ?v_125) ?v_219)) (or (or ?v_88 P41) ?v_238)) (or (or ?v_28 ?v_76) ?v_223)) (or (or ?v_125 ?v_192) P22)) (or (or ?v_175 ?v_114) ?v_127)) (or (or ?v_44 P23) ?v_234)) (or (or P25 ?v_3) P29)) (or (or ?v_210 P49) ?v_131)) (or (or ?v_231 P38) ?v_55)) (or (or ?v_141 ?v_239) ?v_135)) (or (or P47 P40) ?v_200)) (or (or P19 ?v_56) P14)) (or (or ?v_240 ?v_108) ?v_151)) (or (or ?v_238 ?v_18) ?v_198)) (or (or P4 P5) ?v_125)) (or (or ?v_32 ?v_122) ?v_95)) (or (or P20 ?v_18) ?v_110)) (or (or ?v_89 P7) ?v_218)) (or (or P17 ?v_35) ?v_76)) (or (or ?v_228 ?v_140) P39)) (or (or ?v_58 ?v_173) P40)) (or (or ?v_154 ?v_211) ?v_186)) (or (or ?v_212 (not P24)) ?v_241)) (or (or ?v_132 ?v_242) ?v_24)) (or (or ?v_35 P20) ?v_171)) (or (or P40 ?v_102) ?v_243)) (or (or P1 ?v_235) ?v_244)) (or (or P22 ?v_120) P5)) (or (or P32 P46) ?v_136)) (or (or ?v_21 ?v_111) P14)) (or (or ?v_90 ?v_223) ?v_51)) (or (or ?v_13 ?v_237) ?v_245)) (or (or ?v_20 ?v_7) ?v_129)) (or (or ?v_233 ?v_245) ?v_246)) (or (or ?v_12 ?v_222) P9)) (or (or ?v_232 ?v_85) ?v_237)) (or (or ?v_55 ?v_127) ?v_9)) (or (or P14 ?v_232) ?v_13)) (or (or ?v_79 ?v_40) ?v_247)) (or (or ?v_139 ?v_195) ?v_75)) (or (or P21 P40) ?v_217)) (or (or ?v_242 ?v_248) ?v_111)) (or (or ?v_249 P24) P31)) (or (or ?v_24 ?v_102) P3)) (or (or ?v_56 P16) ?v_163)) (or (or ?v_145 P41) ?v_220)) (or (or ?v_74 ?v_157) P7)) (or (or ?v_7 P12) ?v_170)) (or (or ?v_103 ?v_137) P47)) (or (or ?v_13 ?v_213) ?v_99)) (or (or ?v_61 ?v_116) P32)) (or (or ?v_120 ?v_245) ?v_203)) (or (or ?v_200 ?v_146) P1)) (or (or ?v_250 ?v_206) ?v_122)) (or (or P2 P15) ?v_65)) (or (or ?v_251 ?v_210) ?v_252)) (or (or ?v_65 ?v_87) ?v_253)) (or (or ?v_174 P43) P20)) (or (or ?v_232 ?v_34) ?v_222)) (or (or P41 P7) ?v_125)) (or (or ?v_185 ?v_82) ?v_252)) (or (or ?v_212 ?v_254) ?v_184)) (or (or ?v_177 ?v_98) ?v_207)) (or (or ?v_205 ?v_155) ?v_178)) (or (or ?v_115 ?v_203) ?v_48)) (or (or ?v_44 ?v_31) ?v_166)) (or (or ?v_22 P7) P32)) (or (or P30 P15) ?v_126)) (or (or ?v_53 ?v_126) P8)) (or (or ?v_105 ?v_21) ?v_128)) (or (or ?v_163 ?v_124) ?v_216)) (or (or P19 P3) ?v_162)) (or (or ?v_164 ?v_143) ?v_92)) (or (or ?v_197 ?v_35) ?v_58)) (or (or ?v_224 ?v_83) ?v_92)) (or (or P32 ?v_56) P29)) (or (or ?v_178 P16) ?v_138)) (or (or ?v_203 ?v_225) ?v_199)) (or (or ?v_56 ?v_209) ?v_212)) (or (or ?v_22 ?v_138) ?v_233)) (or (or ?v_79 P40) ?v_28)) (or (or P8 ?v_86) P25)) (or (or ?v_54 ?v_233) ?v_161)) (or (or P35 P13) P20)) (or (or ?v_88 ?v_45) ?v_120)) (or (or P39 P44) ?v_255)) (or (or ?v_8 ?v_142) ?v_11)) (or (or ?v_234 ?v_172) ?v_76)) (or (or ?v_106 P1) ?v_252)) (or (or ?v_206 ?v_170) ?v_31)) (or (or P27 ?v_249) ?v_209)) (or (or ?v_139 ?v_121) ?v_112)) (or (or ?v_153 ?v_77) P2)) (or (or ?v_250 ?v_247) ?v_167)) (or (or ?v_164 ?v_84) ?v_144)) (or (or ?v_168 ?v_254) ?v_156)) (or (or ?v_8 ?v_194) ?v_125)) (or (or P45 ?v_189) ?v_183)) (or (or ?v_256 P44) ?v_202)) (or (or ?v_161 ?v_18) ?v_167)) (or (or ?v_42 ?v_256) ?v_167)) (or (or P16 P35) ?v_118)) (or (or ?v_57 ?v_65) ?v_126)) (or (or ?v_132 P3) ?v_247)) (or (or ?v_55 ?v_96) ?v_50)) (or (or ?v_63 ?v_203) ?v_245)) (or (or ?v_212 P3) ?v_204)) (or (or ?v_122 ?v_143) ?v_34)) (or (or ?v_7 ?v_161) ?v_115)) (or (or ?v_172 ?v_125) P34)) (or (or ?v_110 ?v_152) ?v_138)) (or (or ?v_93 ?v_40) P32)) (or (or ?v_77 ?v_157) ?v_84)) (or (or ?v_218 ?v_139) ?v_133)) (or (or ?v_46 P10) ?v_212)) (or (or ?v_185 ?v_49) ?v_231)) (or (or ?v_231 ?v_212) ?v_175)) (or (or ?v_180 ?v_136) ?v_115)) (or (or ?v_136 ?v_7) ?v_33)) (or (or P0 ?v_257) ?v_182)) (or (or ?v_177 P26) ?v_82)) (or (or ?v_184 ?v_221) ?v_74)) (or (or ?v_257 ?v_147) ?v_128)) (or (or P29 ?v_138) ?v_52)) (or (or ?v_208 P13) P11)) (or (or ?v_152 ?v_213) P0)) (or (or ?v_255 ?v_179) ?v_85)) (or (or P34 ?v_115) ?v_150)) (or (or ?v_161 ?v_247) ?v_208)) (or (or ?v_111 ?v_115) ?v_98)) (or (or ?v_50 ?v_198) ?v_144)) (or (or ?v_194 ?v_65) P35)) (or (or ?v_122 ?v_78) ?v_195)) (or (or ?v_26 ?v_222) ?v_198)) (or (or P21 ?v_137) ?v_30)) (or (or ?v_166 P27) ?v_89)) (or (or ?v_2 ?v_233) ?v_166)) (or (or ?v_228 P8) ?v_201)) (or (or ?v_241 ?v_49) P46)) (or (or P18 ?v_85) ?v_139)) (or (or ?v_223 ?v_164) ?v_94)) (or (or ?v_39 ?v_162) ?v_145)) (or (or P5 ?v_219) ?v_176)) (or (or ?v_182 P2) P33)) (or (or P29 ?v_149) P1)) (or (or ?v_248 ?v_76) P45)) (or (or ?v_124 P49) ?v_217)) (or (or ?v_199 ?v_202) P32)) (or (or ?v_171 ?v_223) ?v_15)) (or (or ?v_122 P45) ?v_221)) (or (or ?v_16 ?v_248) ?v_149)) (or (or ?v_152 ?v_252) ?v_163)) (or (or ?v_3 P9) ?v_94)) (or (or P35 ?v_195) ?v_186)) (or (or ?v_8 ?v_190) ?v_136)) (or (or P22 ?v_216) P8)) (or (or P23 ?v_27) ?v_116)) (or (or ?v_154 ?v_208) ?v_49)) (or (or ?v_114 ?v_121) ?v_250)) (or (or P49 ?v_222) ?v_172)) (or (or ?v_102 ?v_150) ?v_45)) (or (or ?v_138 ?v_168) ?v_49)) (or (or ?v_238 ?v_228) ?v_181)) (or (or ?v_79 ?v_73) P31)) (or (or ?v_135 P11) ?v_242)) (or (or ?v_233 ?v_131) ?v_25)) (or (or P30 ?v_233) ?v_166)) (or (or ?v_86 ?v_182) ?v_120)) (or (or ?v_188 ?v_158) ?v_200)) (or (or ?v_66 ?v_104) ?v_214)) (or (or ?v_170 ?v_76) ?v_56)) (or (or ?v_210 P23) ?v_77)) (or (or ?v_38 ?v_174) ?v_110)) (or (or ?v_61 ?v_249) ?v_96)) (or (or ?v_31 ?v_236) P13)) (or (or ?v_193 ?v_68) ?v_187)) (or (or ?v_173 ?v_186) ?v_243)) (or (or ?v_194 ?v_193) ?v_198)) (or (or ?v_25 ?v_250) ?v_78)) (or (or P5 ?v_29) ?v_42)) (or (or ?v_229 ?v_31) P37)) (or (or ?v_237 ?v_78) ?v_77)) (or (or ?v_253 P18) ?v_118)) (or (or ?v_52 ?v_216) ?v_198)) (or (or P18 P1) ?v_223)) (or (or ?v_220 ?v_105) ?v_122)) (or (or P27 ?v_155) ?v_159)) (or (or ?v_83 P29) ?v_77)) (or (or ?v_233 ?v_11) P19)) (or (or ?v_71 ?v_109) ?v_8)) (or (or ?v_246 ?v_11) ?v_2)) (or (or ?v_198 ?v_115) P18)) (or (or ?v_247 ?v_219) ?v_21)) (or (or ?v_247 ?v_58) ?v_4)) (or (or ?v_199 ?v_89) ?v_256)) (or (or ?v_114 ?v_78) ?v_148)) (or (or ?v_251 ?v_238) ?v_193)) (or (or ?v_41 P2) ?v_39)) (or (or ?v_44 ?v_114) ?v_121)) (or (or P29 P43) ?v_211)) (or (or ?v_216 ?v_148) ?v_32)) (or (or P30 ?v_119) ?v_236)) (or (or ?v_229 ?v_142) ?v_258)) (or (or ?v_135 P7) P13)) (or (or P28 ?v_67) ?v_224)) (or (or P39 ?v_228) ?v_259)) (or (or ?v_260 ?v_252) ?v_187)) (or (or ?v_28 P28) P38)) (or (or ?v_120 ?v_4) ?v_30))))))))))))))))))))))))))))))))))
(check-sat)
(exit)
